results/res_prop_muc/res_Cimatti_mathsat_cores/QF_LRA/op_seen_more1.induction.smt.smt2.res
unsat
( c102
  c104
  c1059
  c1061
  c1062
  c1076
  c108
  c1081
  c1083
  c1088
  c1092
  c1094
  c1095
  c1096
  c1098
  c1099
  c1101
  c1103
  c113
  c116
  c118
  c1200
  c125
  c126
  c1270
  c1299
  c1345
  c1459
  c1487
  c15
  c1557
  c1575
  c1579
  c1590
  c1592
  c1597
  c16
  c1601
  c1618
  c1619
  c1623
  c1624
  c1628
  c1654
  c1655
  c179
  c18
  c19
  c26
  c29
  c305
  c306
  c308
  c32
  c493
  c494
  c496
  c522
  c53
  c559
  c563
  c564
  c570
  c594
  c603
  c605
  c609
  c614
  c615
  c621
  c676
  c702
  c772
  c80
  c801
  c81
  c847
  c86
  c961
  c989 )
